1 -1 0
1 -2 0
1 -3 0
1 -4 0
1 -5 0
1 -6 0
1 -7 0
1 -8 0
1 -9 0
1 -10 0
1 -11 0
1 -12 0
1 -13 0
1 -14 0
1 -15 0
1 -16 0
1 -17 0
1 -18 0
1 -19 0
1 -20 0
1 -21 0
1 -22 0
1 -23 0
1 -24 0
1 -25 0
1 -26 0
1 -27 0
1 -28 0
1 -29 0
1 -30 0
1 -31 0
1 -32 0
1 -33 0
1 -34 0
1 -35 0
h 3 4 7 10 21 26 31 0
h 4 5 6 8 22 27 32 0
h 1 5 7 9 23 28 33 0
h 1 2 8 10 24 29 34 0
h 2 3 6 9 25 30 35 0
h 1 6 13 14 17 20 31 0
h 2 7 14 15 16 18 32 0
h 3 8 11 15 17 19 33 0
h 4 9 11 12 18 20 34 0
h 5 10 12 13 16 19 35 0
h 11 16 23 24 27 30 31 0
h 12 17 24 25 26 28 32 0
h 13 18 21 25 27 29 33 0
h 14 19 21 22 28 30 34 0
h 15 20 22 23 26 29 35 0
